!File created by the GAMESS Input Deck Generator Plugin for Avogadro
 $BASIS GBASIS=STO NGAUSS=3 $END
 $CONTRL SCFTYP=RHF RUNTYP=OPTIMIZE NZVAR=1 mult=1  ICHARG=0 $END
 $STATPT hssend=.t. OPTTOL=0.0005 NSTEP=50 $END
 $STATPT HESS=calc ihrep=5 $END
 $FORCE nvib=2 $END
 $ZMAT DLC=.t. auto=.t. nonvdw(1)=1,6,3,4 $END
 $ZMAT IFZMAT(1)=1,1,6,1,3,4 fvalue(1)=2.00,2.00 $END

 $DATA 
Title
C1
C     6.0    -1.04969728    -5.23015928    -1.91053021
C     6.0    -1.76900375    -4.49598503    -0.95110190
C     6.0    -1.34520411    -3.19445276    -0.63507968
C     6.0     0.46850795    -3.32943916     0.01728281
C     6.0     0.81441349    -4.68988848    -0.05062803
C     6.0     0.79390699    -5.26817560    -1.33406794
C     6.0     1.43508279    -4.42282820    -2.41214871
C     6.0     1.61499250    -3.12680459    -2.26523495
C     6.0     1.16694283    -2.41691494    -1.00749874
O     8.0     1.33856952    -1.22131586    -0.81611156
H     1.0    -1.31714880    -6.27490854    -2.03356314
H     1.0    -0.85933310    -4.74450493    -2.86048079
H     1.0    -2.25467372    -5.05941343    -0.16266720
H     1.0    -1.14355087    -2.53178930    -1.46894765
H     1.0    -1.85653484    -2.68500900     0.17504252
H     1.0     0.40934473    -2.87866092     1.00417185
H     1.0     0.64451611    -5.32095194     0.81311429
H     1.0     1.03079128    -6.32558870    -1.40890074
H     1.0     1.74341989    -4.93469238    -3.31731606
H     1.0     2.10045338    -2.52210307    -3.01986122
 $END
