!File created by the GAMESS Input Deck Generator Plugin for Avogadro
 $BASIS GBASIS=STO NGAUSS=3 $END
 $CONTRL SCFTYP=RHF RUNTYP=OPTIMIZE NZVAR=1 mult=1  ICHARG=0 $END
 $STATPT hssend=.t. OPTTOL=0.0005 NSTEP=50 $END
 $STATPT HESS=calc ihrep=5 $END
 $FORCE nvib=2 $END
 $ZMAT DLC=.t. auto=.t. nonvdw(1)=1,6,3,4 $END
 $ZMAT IFZMAT(1)=1,1,6,1,3,4 fvalue(1)=2.00,2.00 $END

 $DATA 
Title
C1
C     6.0    -1.10486    -5.14682    -1.92639
C     6.0    -1.82084    -4.54901    -0.93996
C     6.0    -1.44120    -3.17144    -0.46807
C     6.0     0.49504    -3.28700     0.01250
C     6.0     0.79630    -4.75546    -0.10553
C     6.0     0.81515    -5.26190    -1.36891
C     6.0     1.56649    -4.45026    -2.35658
C     6.0     1.75512    -3.12911    -2.22477
C     6.0     1.19226    -2.43806    -1.03585
O     8.0     1.26767    -1.21371    -0.95382
H     1.0    -1.34751    -6.18142    -2.18223
H     1.0    -0.78746    -4.49548    -2.74838
H     1.0    -2.43589    -5.15311    -0.27756
H     1.0    -1.52293    -2.38203    -1.21940
H     1.0    -1.91828    -2.90449     0.47902
H     1.0     0.58359    -2.87462     1.01997
H     1.0     0.58523    -5.39870     0.74312
H     1.0     0.90007    -6.34765    -1.49185
H     1.0     1.97787    -4.98251    -3.21037
H     1.0     2.29641    -2.52875    -2.94316
 $END
