!File created by the GAMESS Input Deck Generator Plugin for Avogadro
 $BASIS GBASIS=STO NGAUSS=3 $END
 $CONTRL SCFTYP=RHF RUNTYP=SADPOINT $END
 $STATPT hssend=.t. OPTTOL=0.0005 NSTEP=50 $END
 $STATPT HESS=calc ihrep=5 $END
 $FORCE nvib=2 $END
 $ZMAT DLC=.t. auto=.t. nonvdw(1)=1,6,3,4,4,5,5,6,1,2,2,3 $END
!$ZMAT IFZMAT(1)=1,1,6,1,3,4 fvalue(1)=2.00,2.00 $END

 $DATA 
Title
C1
C     6.0    -1.08007061    -5.22213554    -1.92452705
C     6.0    -1.77491009    -4.49854851    -0.94821268
C     6.0    -1.37674558    -3.19239259    -0.64069170
C     6.0     0.50338411    -3.32988381     0.02729695
C     6.0     0.81889313    -4.69202805    -0.04665749
C     6.0     0.82701254    -5.27125406    -1.32400978
C     6.0     1.45137668    -4.42903471    -2.40648413
C     6.0     1.62092733    -3.12989044    -2.26568103
C     6.0     1.17380905    -2.41790175    -1.00967932
O     8.0     1.32588422    -1.21662056    -0.83206391
H     1.0    -1.33558249    -6.26875210    -2.05375624
H     1.0    -0.86873633    -4.72476625    -2.86324859
H     1.0    -2.25391483    -5.06661463    -0.15912850
H     1.0    -1.16229725    -2.52748561    -1.46896327
H     1.0    -1.87430286    -2.68818378     0.18081835
H     1.0     0.43275318    -2.87742519     1.01223445
H     1.0     0.63867611    -5.32242489     0.81554043
H     1.0     1.04346609    -6.33246946    -1.39957559
H     1.0     1.75943196    -4.94103670    -3.31160569
H     1.0     2.09674072    -2.52473736    -3.02613211
 $END
