!File created by the GAMESS Input Deck Generator Plugin for Avogadro
 $BASIS GBASIS=STO NGAUSS=3 $END
 $CONTRL SCFTYP=RHF RUNTYP=IRC $END
 $STATPT HESS=READ ihrep=5 $END
 $irc npoint=100 saddle=.t. tsengy=.t. forwrd=.f. opttol=0.0005 stride=0.1 $end

 $DATA 
Title
C1
C     6.0    -1.04969728    -5.23015928    -1.91053021
C     6.0    -1.76900375    -4.49598503    -0.95110190
C     6.0    -1.34520411    -3.19445276    -0.63507968
C     6.0     0.46850795    -3.32943916     0.01728281
C     6.0     0.81441349    -4.68988848    -0.05062803
C     6.0     0.79390699    -5.26817560    -1.33406794
C     6.0     1.43508279    -4.42282820    -2.41214871
C     6.0     1.61499250    -3.12680459    -2.26523495
C     6.0     1.16694283    -2.41691494    -1.00749874
O     8.0     1.33856952    -1.22131586    -0.81611156
H     1.0    -1.31714880    -6.27490854    -2.03356314
H     1.0    -0.85933310    -4.74450493    -2.86048079
H     1.0    -2.25467372    -5.05941343    -0.16266720
H     1.0    -1.14355087    -2.53178930    -1.46894765
H     1.0    -1.85653484    -2.68500900     0.17504252
H     1.0     0.40934473    -2.87866092     1.00417185
H     1.0     0.64451611    -5.32095194     0.81311429
H     1.0     1.03079128    -6.32558870    -1.40890074
H     1.0     1.74341989    -4.93469238    -3.31731606
H     1.0     2.10045338    -2.52210307    -3.01986122
 $END

 $HESS
ENERGY IS     -416.0920679036 E(NUC) IS      508.0229384070
 1  1 1.30439058E-01 1.12566261E-01-1.96250543E-01-1.28697968E-01-7.51390371E-02
 1  2 6.31234073E-02 1.49082304E-01 8.35954906E-02 4.70144271E-02-1.27033247E-01
 1  3 9.32037568E-02-3.25285122E-02-7.38628334E-03-1.40035371E-01-1.20025167E-01
 1  4 1.59616389E-01 5.25962264E-02 1.45017714E-01-4.27144090E-02-1.99140680E-02
 1  5 5.31579383E-03-3.90948994E-03 1.18618739E-02-1.45352440E-04 1.11105702E-02
 1  6-2.51535380E-03 5.29719464E-03-1.26537838E-03 3.47448724E-03-2.14845758E-03
 1  7-7.22899306E-02-9.24433635E-02 4.37295152E-03-3.22382057E-02-3.45552899E-02
 1  8 8.13783162E-02-2.46119597E-03 1.26807468E-02 7.76462414E-03-2.11152295E-02
 1  9 1.81933864E-03-4.65144163E-03-2.52424312E-03-3.28895220E-03-1.65321265E-03
 1 10 7.18216304E-03 3.10281004E-05 4.83158951E-04-6.51350857E-06-4.14905817E-05
 1 11 1.66945955E-03-2.07887324E-02-3.43173128E-03-5.56399494E-03 1.68357389E-03
 1 12 5.63063337E-05 2.34433022E-04 3.31398679E-03-5.23672887E-04 1.29708489E-03
 2  1 1.12566261E-01 8.96344072E-01 4.21916045E-02 7.39079558E-02-1.97559742E-01
 2  2-1.14592063E-01-2.07537224E-02-5.15384621E-02-5.55721729E-02 3.94436903E-02
 2  3-2.98464461E-02 6.50064541E-03-2.93157406E-04 3.42855350E-02 2.92101242E-02
 2  4-5.05058773E-02-5.53878109E-02-3.54692159E-02-4.26298675E-03 1.32948438E-03
 2  5-2.45882855E-03 1.79755272E-04-2.71849918E-03 3.86690999E-04-4.81741656E-03
 2  6 2.06358707E-04-2.10714171E-03 8.05146702E-04-5.18457458E-04 7.46640931E-04
 2  7-1.09677073E-01-4.42483601E-01-4.31669576E-02-4.10641564E-02-1.65700537E-01
 2  8 1.52866468E-01-1.20040289E-02 1.47058872E-02 1.84760971E-02 6.27480217E-03
 2  9 1.60546838E-03 1.65450235E-03-3.43967204E-03-6.50745847E-03-1.35010722E-03
 2 10-3.20306840E-03 8.31652570E-04 2.81570237E-04-8.01207399E-04 8.58339715E-04
 2 11-1.37324923E-03 1.76476928E-02 1.45109239E-03 4.00783096E-03 1.31303624E-04
 2 12 3.13557142E-04 2.93808311E-05-1.33489571E-04 3.30727547E-04-2.62047434E-04
 3  1-1.96250543E-01 4.21916045E-02 8.39219168E-01 1.58039182E-01-9.37083175E-02
 3  2-3.10003567E-01-2.83785159E-02-3.03769235E-02-1.50963815E-02 2.65531924E-02
 3  3-1.62265750E-02 5.22117474E-03-1.07209874E-02 9.08999000E-03 5.15849628E-03
 3  4-1.86970756E-02-1.84114848E-03-5.20616239E-02 6.67198458E-03-2.29878622E-03
 3  5 4.47219622E-03 2.18212551E-04 1.83552649E-03 6.09259377E-04-2.11125353E-03
 3  6-7.47312433E-04-4.20385450E-03 4.46965484E-05 8.88999276E-04 1.14876238E-03
 3  7-5.25545721E-03-3.64574178E-02-8.60824763E-02 5.02034948E-02 1.53361116E-01
 3  8-3.78774026E-01 1.63125081E-02-2.55724983E-02-1.32325619E-02-3.67970983E-04
 3  9-1.11626781E-03 9.28566463E-04 4.91246533E-03-1.98578564E-03 3.06634347E-03
 3 10-1.70026939E-03 9.89518578E-04 5.95734849E-04 4.85237568E-05 1.15131891E-03
 3 11-9.47124203E-04 1.25989704E-03 2.02457532E-04 3.19921691E-04-5.31690150E-05
 3 12 4.98465770E-04-6.42077920E-04-7.28031174E-04 1.22866826E-04 3.04145721E-04
 4  1-1.28697968E-01 7.39079558E-02 1.58039182E-01 4.51165223E-01 1.29977316E-01
 4  2-2.82765959E-01-1.13589603E-01-1.17256171E-01 1.20542543E-02-1.44732096E-02
 4  3-2.75652975E-03-3.62450973E-03-3.01970662E-02 1.08069468E-02 1.02878525E-02
 4  4-5.23020545E-02-6.97885222E-03-2.88686750E-02 4.29483205E-03 1.98715190E-03
 4  5-2.07863824E-04 3.71580738E-04-1.36268980E-03 2.42978999E-04 6.81969596E-04
 4  6 1.67911638E-04-7.62675523E-04-5.89541377E-04-9.49826180E-04 4.00277102E-04
 4  7 9.15236671E-03-1.08636769E-02-1.23157125E-02-1.07685465E-02 6.07376833E-03
 4  8-1.14149450E-03-1.28693912E-01-9.78052474E-02 1.45303159E-01-2.14009752E-03
 4  9-6.98135080E-03-6.18685751E-03 1.17778709E-02 2.37910250E-02 5.68902377E-03
 4 10 1.88528498E-04-7.08174907E-04-1.47134258E-04 2.37857750E-03-1.71132741E-03
 4 11 2.95258818E-03 2.25920250E-03 5.94603896E-04 1.10023101E-03-2.49213656E-04
 4 12-8.79627644E-05 1.37878643E-04-5.68664318E-04 1.55010761E-04-1.87345760E-04
 5  1-7.51390371E-02-1.97559742E-01-9.37083175E-02 1.29977316E-01 7.95858412E-01
 5  2-8.34900680E-05 3.13356601E-02-4.02080883E-01-2.06378650E-02-1.39713137E-01
 5  3 7.44036585E-02-3.55696354E-02 2.49058183E-02-1.03499994E-01-7.14119954E-02
 5  4 1.25119751E-01 2.81004760E-02 9.21253534E-02-1.28922703E-02-4.67082852E-03
 5  5 2.27851380E-03-2.80696891E-03 4.62874526E-03-9.32474691E-04 1.19923162E-02
 5  6 2.23696288E-03 3.86729512E-03-1.29878941E-03 9.15075211E-04-2.05573926E-03
 5  7 3.38470802E-02-1.10561746E-02-2.43936074E-02 8.30510788E-03 1.90724376E-02
 5  8 2.20787343E-02-8.45525960E-02-1.84801182E-01 1.47564095E-01-3.23153404E-02
 5  9-1.26626197E-02-1.69750840E-02-1.90215200E-02-7.26309545E-03-2.46206600E-03
 5 10 7.94927253E-03-3.86960099E-04 7.94720943E-04-3.43394206E-05 2.19150872E-04
 5 11 2.49908953E-04-7.90503963E-03-6.28174559E-04-1.63379628E-03 6.25336267E-04
 5 12-4.14165416E-04 3.25503585E-04 1.61936439E-03-4.13835801E-04 5.81664110E-04
 6  1 6.31234073E-02-1.14592063E-01-3.10003567E-01-2.82765959E-01-8.34900680E-05
 6  2 7.10456426E-01 9.71953690E-02-1.00010170E-02-1.18748296E-01-8.93208990E-02
 6  3 4.05847662E-02-2.31115277E-02-1.03782390E-02-6.96699767E-02-4.36254646E-02
 6  4 7.57217847E-02 2.11962547E-02 6.18137580E-02-7.64007764E-03-1.62670872E-03
 6  5-3.67642654E-04-1.48923511E-03 1.93893912E-03 3.08089573E-05 7.00285303E-03
 6  6 3.06413149E-03 7.13839247E-04-6.36796104E-04-5.28276136E-04-7.25967040E-04
 6  7 7.14415571E-03 2.31630633E-03 3.85444837E-03 3.71935825E-02-2.22801807E-02
 6  8-1.03697233E-02 1.26630759E-01 1.44036939E-01-2.80881708E-01-4.53511068E-05
 6  9 3.43906788E-02 1.28828179E-02-2.06864035E-02-2.69608339E-02-2.90398276E-03
 6 10 3.14155065E-03 7.54145349E-06 7.51340172E-04 1.47635670E-03-6.47940356E-05
 6 11 8.69455033E-04-6.85270859E-03-1.17505813E-03-1.40389202E-03 2.81602213E-04
 6 12-3.43030606E-04 4.95015492E-04 9.02870388E-04-2.11935093E-04 2.75135762E-04
 7  1 1.49082304E-01-2.07537224E-02-2.83785159E-02-1.13589603E-01 3.13356601E-02
 7  2 9.71953690E-02 1.95339873E-01-2.98510104E-02-3.05045656E-01 1.49607664E-01
 7  3-9.75428226E-02 4.33952748E-02-4.97128600E-02 1.41868970E-01 7.09970432E-02
 7  4-9.71395721E-02-3.02810199E-02-9.93994040E-02 1.08286253E-02-1.78612122E-04
 7  5 1.12998036E-03 4.36309793E-03-1.87766258E-03 1.56481682E-03-3.89063051E-02
 7  6-1.79940458E-02-2.40290283E-03 2.87185708E-03 6.22626307E-03 2.82409740E-03
 7  7-2.55786287E-03 2.67441710E-03 4.22397612E-03-1.95717128E-02-1.53687785E-03
 7  8-5.51753578E-03-1.02348690E-03-1.40172540E-02-7.82273595E-03-4.35426393E-02
 7  9-4.88079403E-02 7.78468189E-02-1.38101824E-01 7.90145974E-02 1.50565439E-01
 7 10-1.18939372E-02 1.56710132E-03-7.93012985E-04-1.21586479E-03-1.32413838E-03
 7 11 5.18289346E-05 7.75395079E-03 8.83806219E-04 1.11241276E-03-1.08030857E-03
 7 12 4.58632025E-04-5.57640444E-04-1.51050000E-03 1.38952130E-04-9.91531837E-04
 8  1 8.35954906E-02-5.15384621E-02-3.03769235E-02-1.17256171E-01-4.02080883E-01
 8  2-1.00010170E-02-2.98510104E-02 9.06443761E-01 7.25438372E-03 8.20450633E-02
 8  3-7.87563246E-02 2.08902756E-02-7.93573634E-03 5.69552893E-02 3.21998558E-02
 8  4-5.93203818E-02-2.25686949E-02-5.50353203E-02 7.96282402E-03 2.18537582E-03
 8  5 1.86304498E-03 2.72644163E-03-2.47377280E-03 4.81211714E-04-1.43612383E-02
 8  6-2.53924922E-03-6.72496586E-03-2.64934714E-04-1.23454295E-03 2.94893259E-03
 8  7-2.35516750E-03-5.85059282E-04-4.42191335E-03-7.27498382E-03 4.02311165E-04
 8  8-2.57614499E-03-6.29209514E-03-1.47066684E-02-1.61961325E-02-1.96439328E-02
 8  9-2.25152617E-01 1.86564127E-01 9.50214552E-02-1.66050407E-01-1.28976549E-01
 8 10-9.55995259E-03 4.56441480E-04-1.33243822E-03-2.21908247E-04-1.26948173E-03
 8 11 1.88144538E-03 4.96900870E-03 1.89375548E-03 1.93331035E-03-5.19704981E-04
 8 12 2.13487609E-04-2.05744078E-04-1.46236476E-03 4.06790976E-04-1.70899571E-04
 9  1 4.70144271E-02-5.55721729E-02-1.50963815E-02 1.20542543E-02-2.06378650E-02
 9  2-1.18748296E-01-3.05045656E-01 7.25438372E-03 7.67821714E-01 7.98645273E-02
 9  3-4.15009463E-02-2.66953112E-02-2.11194021E-02 5.78566728E-02 2.86027562E-02
 9  4-3.72773508E-02-1.73556269E-02-4.33717894E-02 3.32373300E-03-2.50161146E-03
 9  5 2.51017657E-03-9.51772620E-04-1.49496566E-04 5.88898308E-04-1.72097746E-03
 9  6-3.38292614E-03 3.77135405E-03 7.17242393E-05 1.94129309E-03 4.80186572E-06
 9  7 5.92954677E-03-2.72448482E-03-2.26524024E-03-9.91596904E-03 1.21130632E-04
 9  8-4.60214625E-04 8.81017676E-03 3.23711100E-02 1.25346003E-02 7.07237273E-02
 9  9 1.79846060E-01-3.11542761E-01 1.62435183E-01-1.36868549E-01-2.95635376E-01
 9 10-1.80267672E-02 9.73370320E-04-3.21491008E-03 3.86489115E-04-8.44038572E-04
 9 11 6.00413828E-04 4.07122796E-03 1.05233000E-03 8.20270744E-04-3.89063996E-04
 9 12 1.14403928E-04-1.70209473E-04-2.37510222E-04 8.26575318E-06-5.55682258E-05
10  1-1.27033247E-01 3.94436903E-02 2.65531924E-02-1.44732096E-02-1.39713137E-01
10  2-8.93208990E-02 1.49607664E-01 8.20450633E-02 7.98645273E-02 1.17674308E-01
10  3 6.09425291E-02-1.56305614E-01-5.59789311E-02-3.36659314E-02-4.29813950E-02
10  4 8.05704989E-02 3.23020168E-02 9.74733661E-02-1.22179317E-02 7.56033053E-03
10  5-1.00987131E-02 6.55072920E-03-9.73500744E-03 6.70051439E-03-9.80701401E-02
10  6-1.85945900E-02 6.52159081E-02 1.07785157E-02-2.52869728E-02 3.22243409E-03
10  7 3.58324920E-03-3.78442819E-04 2.40746646E-03 1.29162698E-02 1.19610249E-03
10  8 4.03066618E-03 7.64549345E-04 1.16707262E-03 3.45982792E-04-2.41468789E-02
10  9 2.23154856E-03-6.24477260E-03-1.72263644E-02 1.66175725E-03-1.13782637E-02
10 10-4.55098210E-02 9.45118151E-03 3.00956994E-02 9.02224426E-03-9.47254664E-03
10 11 1.70371070E-05-1.67857928E-06-9.44725360E-04-1.13433631E-03 1.02863334E-04
10 12-4.11122494E-04-3.03815380E-04 3.08541790E-03 2.00282663E-04 1.84281395E-03
11  1 9.32037568E-02-2.98464461E-02-1.62265750E-02-2.75652975E-03 7.44036585E-02
11  2 4.05847662E-02-9.75428226E-02-7.87563246E-02-4.15009463E-02 6.09425291E-02
11  3 8.39564913E-01 1.45832994E-01 5.66458765E-02-4.08118281E-01 4.96655065E-02
11  4-5.98983611E-02-4.34180463E-02-8.87463640E-02 4.56299901E-03-3.95098440E-03
11  5 4.35648067E-03 5.93569306E-03 1.46112445E-02-9.84516994E-03-5.83461097E-02
11  6-1.43432241E-01 3.61175275E-02-3.12766760E-02-5.79693884E-02 3.57914346E-02
11  7-3.74724288E-03 2.13517452E-03-1.30398373E-03-1.16953987E-02-8.46025983E-04
11  8-2.14712417E-03-1.64043014E-03-7.96809209E-04 1.20119845E-03 1.89689284E-02
11  9-1.94406632E-03 4.91903787E-03 1.03705790E-02-1.23233956E-03 6.21549913E-03
11 10-5.26496711E-03-1.44058966E-01-1.50236911E-01 1.21452975E-02-1.39736458E-02
11 11-1.10159051E-02 6.99678322E-03 5.92541453E-04-9.09401059E-04-2.28773281E-04
11 12-1.19320223E-05 1.23606271E-04 2.62525458E-03-2.95049931E-03-2.87662664E-03
12  1-3.25285122E-02 6.50064541E-03 5.22117474E-03-3.62450973E-03-3.55696354E-02
12  2-2.31115277E-02 4.33952748E-02 2.08902756E-02-2.66953112E-02-1.56305614E-01
12  3 1.45832994E-01 7.92014971E-01 2.96373695E-02-5.75558713E-02-1.69358056E-01
12  4 3.17541884E-02-4.10081979E-02 2.82680265E-02-3.04229012E-03 6.92011507E-03
12  5-1.23521378E-03 2.23658181E-02 1.73523319E-02-2.15007962E-02 7.24751398E-02
12  6 4.35542288E-02-2.00718010E-01 2.06604534E-04 7.35171646E-03 1.83385297E-02
12  7 6.79273368E-04 4.06026827E-04 6.24220023E-04 2.93309804E-03 1.55209438E-04
12  8 1.33704662E-03-5.24532929E-04 1.64256801E-04 1.61488944E-04-1.94233135E-02
12  9 1.95945722E-03-4.72341294E-03 7.07477742E-03-1.17686216E-03 3.19809273E-03
12 10 1.67324873E-02-1.42093495E-01-4.00665869E-01-9.37755209E-03 3.26797960E-02
12 11 9.59343864E-03-2.54028069E-03-2.53351305E-03-8.28181931E-03-1.35883676E-03
12 12 9.88240316E-05 7.56825415E-04 1.47105542E-03-3.92793644E-03-3.22353986E-03
13  1-7.38628334E-03-2.93157406E-04-1.07209874E-02-3.01970662E-02 2.49058183E-02
13  2-1.03782390E-02-4.97128600E-02-7.93573634E-03-2.11194021E-02-5.59789311E-02
13  3 5.66458765E-02 2.96373695E-02 2.61676836E-01-3.17659369E-02-7.99176456E-02
13  4-7.20487339E-02 5.77222673E-03 9.74634261E-03-2.56848368E-04-2.46835490E-03
13  5 2.47051124E-02-1.43459130E-04 3.51509047E-03 2.84656941E-03 2.67065564E-03
13  6-1.80583002E-02-4.82569155E-03-2.21654379E-03-2.80708664E-03 3.89018740E-03
13  7-1.60799852E-05-2.24998228E-04-6.10682824E-04-1.33040498E-03-4.65027207E-04
13  8-8.90607215E-04 4.23590433E-03 9.59231925E-04-6.65463704E-04 3.07485077E-03
13  9 2.76988207E-04 8.90364930E-04 1.35304868E-03 2.93075137E-04 7.35359528E-04
13 10 2.90157004E-04-2.26126576E-03-3.58076918E-03-5.76174372E-02-2.91594200E-02
13 11 4.65273411E-02 3.54291288E-03 5.08140110E-03 1.16801029E-02-3.22449564E-05
13 12-2.19073810E-03 1.99886699E-03 9.23065011E-05 1.80424546E-04 5.15978683E-05
14  1-1.40035371E-01 3.42855350E-02 9.08999000E-03 1.08069468E-02-1.03499994E-01
14  2-6.96699767E-02 1.41868970E-01 5.69552893E-02 5.78566728E-02-3.36659314E-02
14  3-4.08118281E-01-5.75558713E-02-3.17659369E-02 8.33964533E-01-1.01488934E-01
14  4 9.40345259E-02-1.78561977E-01-2.21068799E-02-1.11878637E-02 2.41444416E-02
14  5 1.50938135E-02-2.11083228E-05-1.18210985E-03-2.29410860E-03 1.86251636E-02
14  6-3.47136617E-02 2.38429326E-02-1.74124381E-03 6.47596571E-03-1.70560110E-03
14  7 4.09161677E-03-5.25240690E-04 2.18882052E-03 1.30489462E-02 7.17242555E-04
14  8 4.74741019E-03 5.09657038E-04-8.85565688E-06 8.54091817E-04-1.49177107E-02
14  9 1.70686887E-03-3.66506709E-03-6.50404844E-03 8.96623582E-04-4.29918787E-03
14 10 1.49425753E-02-7.65935133E-03 9.01883588E-03-4.05141124E-02-2.12453581E-01
14 11 1.79761003E-01-1.63791257E-02-7.60482070E-03-4.23942807E-02-2.44510932E-03
14 12-4.45770243E-03 4.08107318E-03 1.24800767E-03-3.63232553E-04-1.35340163E-03
15  1-1.20025167E-01 2.92101242E-02 5.15849628E-03 1.02878525E-02-7.14119954E-02
15  2-4.36254646E-02 7.09970432E-02 3.21998558E-02 2.86027562E-02-4.29813950E-02
15  3 4.96655065E-02-1.69358056E-01-7.99176456E-02-1.01488934E-01 8.94554178E-01
15  4 9.46259782E-02-1.16800240E-01-3.68691560E-01-9.64129507E-03 3.15222429E-03
15  5-4.50979086E-02-5.70737738E-04-7.13916341E-03 1.00679851E-04-8.14142841E-03
15  6 2.41897783E-02 1.79840074E-02 5.11974180E-03 7.04210515E-03-6.10569714E-03
15  7 4.49862346E-03-1.53069207E-03 2.13397564E-03 1.22832805E-02 6.99100852E-04
15  8 3.38406222E-03 1.11566386E-03 6.56354924E-04-3.94405554E-04-7.12702843E-03
15  9 1.44692204E-03-1.89112428E-03-2.78299801E-03 8.91899460E-04-1.25325883E-03
15 10 1.78398955E-02-4.00958950E-02 8.24585603E-03 6.43750150E-02 1.82991491E-01
15 11-3.27075758E-01-1.14080907E-02 5.72803322E-03 3.88600832E-03 1.25236528E-03
15 12 1.56962932E-03-8.45606398E-04 1.99349691E-04-9.77932647E-04 2.90141184E-04
16  1 1.59616389E-01-5.05058773E-02-1.86970756E-02-5.23020545E-02 1.25119751E-01
16  2 7.57217847E-02-9.71395721E-02-5.93203818E-02-3.72773508E-02 8.05704989E-02
16  3-5.98983611E-02 3.17541884E-02-7.20487339E-02 9.40345259E-02 9.46259782E-02
16  4 1.54070708E-01-9.29380420E-02-2.20735215E-01-9.62860103E-02-1.66532718E-02
16  5 6.44966968E-02 7.99366755E-03-2.52004264E-02-1.04223291E-03-1.92416952E-02
16  6 1.09476200E-02-1.18678576E-02 1.95649855E-03-6.09782370E-03 2.95494474E-03
16  7-1.19129051E-02 4.08173905E-03-5.20564059E-03-2.49542795E-02-1.17283316E-03
16  8-8.30338599E-03-9.67899873E-04-5.50640679E-04-1.37514453E-03 1.10013064E-02
16  9-1.89020307E-03 2.11696066E-03 3.61588464E-03-1.60952980E-03 1.99779049E-03
16 10 2.12773242E-03 3.13116645E-03 9.87140770E-04 5.73240305E-03 5.11289609E-03
16 11 7.81310155E-03-6.22710900E-02 8.17591544E-02 1.30095752E-02 9.73572776E-04
16 12-7.86273395E-03 3.90740113E-03 9.46763051E-03-4.84579804E-04 5.11691337E-03
17  1 5.25962264E-02-5.53878109E-02-1.84114848E-03-6.97885222E-03 2.81004760E-02
17  2 2.11962547E-02-3.02810199E-02-2.25686949E-02-1.73556269E-02 3.23020168E-02
17  3-4.34180463E-02-4.10081979E-02 5.77222673E-03-1.78561977E-01-1.16800240E-01
17  4-9.29380420E-02 9.11677158E-01 6.15605066E-02-4.27722188E-02-1.88712491E-01
17  5 7.79322587E-02-2.08598115E-02-2.89611002E-02 3.31845130E-02 4.75976050E-05
17  6 4.49223582E-03-2.18934289E-03-1.10573518E-04-6.75769976E-04 1.78260742E-03
17  7-1.41774803E-02 2.59930863E-03-6.48106130E-03 2.35393055E-03 6.74303201E-04
17  8 2.66330885E-04 9.15978774E-04 4.82416934E-04-7.50248709E-04 5.17179436E-03
17  9 2.38053156E-04 5.33251502E-04 1.95660247E-03 3.11765188E-04 2.32548288E-03
17 10 1.01871487E-03-8.01001903E-03 1.48010213E-03-4.04451658E-04 1.45558996E-02
17 11 2.53384790E-02 1.00965316E-01-4.46239711E-01-2.08480869E-02 9.80120794E-03
17 12 1.32229072E-02-1.50503480E-02-4.37817809E-03-3.81853899E-03-3.27597915E-03
18  1 1.45017714E-01-3.54692159E-02-5.20616239E-02-2.88686750E-02 9.21253534E-02
18  2 6.18137580E-02-9.93994040E-02-5.50353203E-02-4.33717894E-02 9.74733661E-02
18  3-8.87463640E-02 2.82680265E-02 9.74634261E-03-2.21068799E-02-3.68691560E-01
18  4-2.20735215E-01 6.15605066E-02 7.01349444E-01 1.01285855E-01 5.88916993E-02
18  5-2.13386006E-01-2.48768986E-03 1.48780462E-02 8.29154282E-03-1.14001305E-02
18  6 6.20586114E-04-7.91604615E-03 1.49727439E-03-1.19108351E-03 9.75899156E-04
18  7-6.23941628E-03 1.97142627E-03-3.16760465E-03-3.06468583E-02-1.15680426E-03
18  8-9.59561876E-03 7.28323408E-04 9.42240286E-04-1.81397313E-03 1.21616653E-02
18  9-4.07524501E-04 2.38762355E-03 4.96925596E-03-4.22860952E-05 3.75818882E-03
18 10-6.09408869E-03 1.50899396E-03-6.13227489E-04-6.30940273E-03-2.21089606E-02
18 11-1.73800678E-02 2.46013973E-02-2.67412369E-02-7.66835715E-02 1.16149392E-02
18 12 2.39489564E-02-1.30486278E-02 3.08634521E-03-3.44085821E-03 8.83715497E-04
19  1-4.27144090E-02-4.26298675E-03 6.67198458E-03 4.29483205E-03-1.28922703E-02
19  2-7.64007764E-03 1.08286253E-02 7.96282402E-03 3.32373300E-03-1.22179317E-02
19  3 4.56299901E-03-3.04229012E-03-2.56848368E-04-1.11878637E-02-9.64129507E-03
19  4-9.62860103E-02-4.27722188E-02 1.01285855E-01 3.10571990E-01 1.03492499E-01
19  5-2.06113723E-01-1.05057971E-01-8.58921151E-02 2.93169527E-02 1.43951038E-02
19  6 7.30760863E-03-1.07040254E-02-1.63314206E-03 5.12885078E-03 5.87181003E-03
19  7-3.62033993E-04-3.47809855E-04-1.23217500E-04-2.27970846E-03-2.46533824E-03
19  8 2.62315588E-03 5.90484066E-04-2.28988601E-04 4.57160130E-04-1.75431264E-03
19  9 3.27861251E-04 8.18135088E-05-2.94731588E-04-4.51009520E-05-2.55401375E-04
19 10-5.47297741E-05-6.02053561E-04 1.17366679E-04 7.00999764E-03-1.15050381E-03
19 11-1.21345839E-03 2.03192606E-03 6.07634975E-03-9.24509064E-03-9.34568868E-02
19 12 4.66400137E-02 1.01199355E-01 6.64502912E-03-1.96518170E-02-2.97003938E-03
20  1-1.99140680E-02 1.32948438E-03-2.29878622E-03 1.98715190E-03-4.67082852E-03
20  2-1.62670872E-03-1.78612122E-04 2.18537582E-03-2.50161146E-03 7.56033053E-03
20  3-3.95098440E-03 6.92011507E-03-2.46835490E-03 2.41444416E-02 3.15222429E-03
20  4-1.66532718E-02-1.88712491E-01 5.88916993E-02 1.03492499E-01 1.13783939E+00
20  5 1.66109722E-01-1.05801693E-01-7.48750299E-01-5.94614935E-02 4.45161322E-03
20  6-3.78651660E-02-3.11540988E-02 6.40821280E-04 1.29732527E-02 2.64055904E-03
20  7 7.19395966E-04-4.81423445E-04 2.93805781E-04 2.17907090E-04 6.15635945E-04
20  8 1.32956167E-03 2.66113164E-04-1.07510868E-04 2.42657654E-04 5.53976547E-05
20  9 1.19078664E-04 1.42099385E-04 6.96716443E-04-2.64664804E-05 7.49448624E-04
20 10-1.63268425E-03-6.93220058E-04 7.93852533E-04-3.12289574E-03-2.55339272E-03
20 11-4.47138515E-03-2.25876888E-02-1.29119647E-02 3.08368227E-02 4.84181452E-02
20 12-1.64320173E-01-1.60014485E-01 3.85273281E-03-1.41630509E-02-1.05736373E-02
21  1 5.31579383E-03-2.45882855E-03 4.47219622E-03-2.07863824E-04 2.27851380E-03
21  2-3.67642654E-04 1.12998036E-03 1.86304498E-03 2.51017657E-03-1.00987131E-02
21  3 4.35648067E-03-1.23521378E-03 2.47051124E-02 1.50938135E-02-4.50979086E-02
21  4 6.44966968E-02 7.79322587E-02-2.13386006E-01-2.06113723E-01 1.66109722E-01
21  5 7.44167098E-01 2.47930521E-02-9.07900016E-02-1.57869782E-01-9.86542673E-03
21  6-4.07434796E-02 1.42877612E-02 4.82219456E-03-3.10691058E-03-1.00738835E-02
21  7-1.00999168E-03 6.00924077E-04-4.51507239E-04-3.14109072E-03-5.48662157E-04
21  8 1.12564768E-03-9.98945876E-05-1.63482017E-04 3.69905682E-04-1.19211075E-03
21  9-4.04323930E-04 8.08491729E-05-8.63589223E-04 3.11848513E-06-1.02820420E-03
21 10-3.00144258E-04 1.05335959E-03-2.75552776E-05 1.93000692E-03-2.37908569E-03
21 11-4.13425569E-03 8.32246660E-04-5.76126154E-03 5.50537570E-03 1.00954328E-01
21 12-1.54147139E-01-3.49037936E-01 3.91312561E-03 3.12119571E-02 1.01907886E-02
22  1-3.90948994E-03 1.79755272E-04 2.18212551E-04 3.71580738E-04-2.80696891E-03
22  2-1.48923511E-03 4.36309793E-03 2.72644163E-03-9.51772620E-04 6.55072920E-03
22  3 5.93569306E-03 2.23658181E-02-1.43459130E-04-2.11083228E-05-5.70737738E-04
22  4 7.99366755E-03-2.08598115E-02-2.48768986E-03-1.05057971E-01-1.05801693E-01
22  5 2.47930521E-02 3.08496756E-01 2.02388421E-01-2.47634060E-01-1.20511708E-01
22  6 1.40960376E-02 6.44342810E-02 2.33466426E-02-2.36369032E-03-2.23607262E-03
22  7-9.58323256E-05-1.12817560E-04 2.51681210E-04-3.09408037E-05-2.94424514E-04
22  8 7.49568976E-04 4.89917810E-05 6.67709227E-05 4.79343759E-05-9.49938949E-04
22  9 1.51773999E-05 4.77438425E-05 4.41390945E-04-1.14185215E-04 3.30789992E-04
22 10-8.58589285E-05-2.96033277E-03 1.86050489E-03-7.74678715E-04-2.40129550E-04
22 11-5.05797108E-04-6.62870133E-04-6.44994881E-04 2.91526147E-03 1.40900424E-02
22 12 1.20537980E-02 3.68267256E-03-1.33480337E-01-1.01244312E-01 1.34177425E-01
23  1 1.18618739E-02-2.71849918E-03 1.83552649E-03-1.36268980E-03 4.62874526E-03
23  2 1.93893912E-03-1.87766258E-03-2.47377280E-03-1.49496566E-04-9.73500744E-03
23  3 1.46112445E-02 1.73523319E-02 3.51509047E-03-1.18210985E-03-7.13916341E-03
23  4-2.52004264E-02-2.89611002E-02 1.48780462E-02-8.58921151E-02-7.48750299E-01
23  5-9.07900016E-02 2.02388421E-01 1.15920482E+00-9.93972887E-03 8.78198051E-03
23  6-1.29881510E-01-3.41461832E-02 1.20960508E-02-5.49802995E-02-5.98301673E-02
23  7-8.78130799E-04 4.28105713E-04-1.55302490E-04 1.77650323E-04-1.15173142E-04
23  8 2.61784916E-05-1.55759024E-04 1.90109264E-04-1.47394471E-05-1.66564099E-04
23  9-4.07418895E-05-4.41255995E-04-5.48674359E-05 1.48734902E-04-4.08193901E-04
23 10-2.00038236E-03-3.42323682E-03 2.70999161E-03 3.91822587E-04 6.08406870E-04
23 11-2.08959432E-04 9.13594147E-04 2.80172156E-04 1.89940096E-03-7.30845089E-03
23 12-9.71541771E-03 8.33303324E-03-1.05494270E-01-1.97857738E-01 1.54249609E-01
24  1-1.45352440E-04 3.86690999E-04 6.09259377E-04 2.42978999E-04-9.32474691E-04
24  2 3.08089573E-05 1.56481682E-03 4.81211714E-04 5.88898308E-04 6.70051439E-03
24  3-9.84516994E-03-2.15007962E-02 2.84656941E-03-2.29410860E-03 1.00679851E-04
24  4-1.04223291E-03 3.31845130E-02 8.29154282E-03 2.93169527E-02-5.94614935E-02
24  5-1.57869782E-01-2.47634060E-01-9.93972887E-03 6.81261536E-01 6.66704765E-02
24  6-3.51526672E-02-2.47528136E-01 3.15662658E-03-3.47000102E-02 1.95067139E-03
24  7-1.35803999E-04-1.37484683E-04 1.82348667E-04 6.31849697E-04-1.54228320E-04
24  8 2.89348426E-04-6.05067354E-05 8.32245977E-05 6.22134603E-05 3.50249700E-04
24  9 3.85939216E-05-3.18868321E-04-1.46903782E-04 1.58954761E-05 9.40642832E-05
24 10 2.87324547E-03 2.43827773E-03-8.07293697E-04 9.39109915E-04-4.90796975E-04
24 11 1.09056170E-03 3.34946564E-03 2.54072557E-03-4.43554189E-03-3.34779634E-03
24 12-3.66137610E-02 8.04139972E-03 1.33869774E-01 1.50551889E-01-2.70133166E-01
25  1 1.11105702E-02-4.81741656E-03-2.11125353E-03 6.81969596E-04 1.19923162E-02
25  2 7.00285303E-03-3.89063051E-02-1.43612383E-02-1.72097746E-03-9.80701401E-02
25  3-5.83461097E-02 7.24751398E-02 2.67065564E-03 1.86251636E-02-8.14142841E-03
25  4-1.92416952E-02 4.75976050E-05-1.14001305E-02 1.43951038E-02 4.45161322E-03
25  5-9.86542673E-03-1.20511708E-01 8.78198051E-03 6.66704765E-02 3.28511303E-01
25  6 1.48445221E-01-1.31612549E-01-9.21565744E-02-1.24377515E-01-2.78355989E-03
25  7-7.36020188E-04 2.38559007E-04-8.28690077E-05-9.29647798E-04-2.14578414E-04
25  8-5.27683198E-05 1.52169182E-04-7.03573295E-05 5.30238317E-04-2.91521753E-03
25  9-2.68111481E-03 1.37756646E-03 1.21319247E-05 3.47269313E-04-9.96898026E-05
25 10-7.94826614E-04-4.31120863E-04-2.24438487E-03 5.23768120E-03 5.91674493E-03
25 11 2.43455961E-03-4.66929057E-05-2.34491405E-05 6.84830556E-04 1.25320482E-02
25 12-4.50752311E-03 7.52780667E-03-9.93542631E-04 1.09837873E-02 1.14118727E-02
26  1-2.51535380E-03 2.06358707E-04-7.47312433E-04 1.67911638E-04 2.23696288E-03
26  2 3.06413149E-03-1.79940458E-02-2.53924922E-03-3.38292614E-03-1.85945900E-02
26  3-1.43432241E-01 4.35542288E-02-1.80583002E-02-3.47136617E-02 2.41897783E-02
26  4 1.09476200E-02 4.49223582E-03 6.20586114E-04 7.30760863E-03-3.78651660E-02
26  5-4.07434796E-02 1.40960376E-02-1.29881510E-01-3.51526672E-02 1.48445221E-01
26  6 1.25258851E+00 1.38342254E-01-1.21978888E-01-9.34627075E-01-1.35564955E-01
26  7 6.16797445E-04-4.31140737E-04 2.63905730E-04 7.47447513E-04 2.34475626E-04
26  8-2.70414317E-04-1.45742017E-04-2.31217172E-04-2.71421512E-04 3.13518476E-03
26  9 1.19008320E-03 1.79265276E-03 5.36564761E-04-8.03468623E-05 9.74030195E-04
26 10 5.76875417E-03 1.45363005E-02-1.41903000E-02-1.02397646E-03-3.75096506E-03
26 11-1.70779594E-03 2.88201040E-04 7.98606991E-04 2.21378118E-04-4.23274510E-03
26 12-3.43978827E-03-3.21666295E-04-7.51368030E-03 1.47088599E-02 1.93297970E-02
27  1 5.29719464E-03-2.10714171E-03-4.20385450E-03-7.62675523E-04 3.86729512E-03
27  2 7.13839247E-04-2.40290283E-03-6.72496586E-03 3.77135405E-03 6.52159081E-02
27  3 3.61175275E-02-2.00718010E-01-4.82569155E-03 2.38429326E-02 1.79840074E-02
27  4-1.18678576E-02-2.18934289E-03-7.91604615E-03-1.07040254E-02-3.11540988E-02
27  5 1.42877612E-02 6.44342810E-02-3.41461832E-02-2.47528136E-01-1.31612549E-01
27  6 1.38342254E-01 5.75509600E-01-3.83706144E-03-1.33755055E-01-1.21163722E-01
27  7-2.87068549E-04 7.27421035E-04-7.15707489E-04-2.96973207E-03-4.02313259E-04
27  8-6.66371954E-04 3.07580817E-04-2.30931097E-04-4.15260437E-05-2.15862583E-03
27  9-4.87243714E-04 1.40155471E-03-4.90359585E-04 1.04460021E-04-5.96956206E-04
27 10 1.53151936E-02 2.56483214E-02-1.59025648E-02 5.31087495E-03-3.17375840E-03
27 11-1.07568967E-03 1.71084506E-03 1.16649485E-03-2.19654752E-03 8.86696790E-03
27 12 1.82357337E-03 7.61674631E-05 5.45952442E-03-1.72685825E-02-1.10194569E-02
28  1-1.26537838E-03 8.05146702E-04 4.46965484E-05-5.89541377E-04-1.29878941E-03
28  2-6.36796104E-04 2.87185708E-03-2.64934714E-04 7.17242393E-05 1.07785157E-02
28  3-3.12766760E-02 2.06604534E-04-2.21654379E-03-1.74124381E-03 5.11974180E-03
28  4 1.95649855E-03-1.10573518E-04 1.49727439E-03-1.63314206E-03 6.40821280E-04
28  5 4.82219456E-03 2.33466426E-02 1.20960508E-02 3.15662658E-03-9.21565744E-02
28  6-1.21978888E-01-3.83706144E-03 6.04546029E-02 1.43503748E-01-5.23888605E-03
28  7 1.76926631E-04-3.78969340E-05-2.74582373E-05-1.04753169E-04-3.35408402E-05
28  8-8.48008193E-05 9.79461187E-05-2.57656720E-05-1.58594189E-04-5.74406278E-05
28  9 2.64642785E-04 3.23308644E-04 1.81563774E-04 4.81119697E-05 9.20095384E-05
28 10-1.86686910E-04 1.00859144E-03-1.30356837E-03 1.92581266E-04-1.74498914E-03
28 11-6.60011916E-04 1.95922340E-04 1.18662709E-04-3.18674453E-04-1.60074157E-03
28 12 9.21277899E-04-1.33809883E-03-4.42403607E-04-8.93622755E-04-1.73049124E-03
29  1 3.47448724E-03-5.18457458E-04 8.88999276E-04-9.49826180E-04 9.15075211E-04
29  2-5.28276136E-04 6.22626307E-03-1.23454295E-03 1.94129309E-03-2.52869728E-02
29  3-5.79693884E-02 7.35171646E-03-2.80708664E-03 6.47596571E-03 7.04210515E-03
29  4-6.09782370E-03-6.75769976E-04-1.19108351E-03 5.12885078E-03 1.29732527E-02
29  5-3.10691058E-03-2.36369032E-03-5.49802995E-02-3.47000102E-02-1.24377515E-01
29  6-9.34627075E-01-1.33755055E-01 1.43503748E-01 1.02948336E+00 1.56491824E-01
29  7-3.38903055E-04 2.34926121E-04-1.93598251E-04-4.07887230E-04-1.37470245E-04
29  8-5.87512482E-05 1.86771718E-04 2.20279230E-04-4.84629764E-06-6.19679520E-04
29  9-1.58002318E-04-4.29487203E-04-3.40521927E-04 4.53314920E-06-4.53422830E-04
29 10 2.46205345E-03 1.94845434E-03-1.80802101E-03 1.88144319E-03-1.44361603E-03
29 11-3.96220966E-05 4.85803410E-04 7.91881685E-05 6.02330449E-05 5.67253011E-04