!File created by the GAMESS Input Deck Generator Plugin for Avogadro
 $BASIS GBASIS=STO NGAUSS=3 $END
 $CONTRL SCFTYP=RHF RUNTYP=OPTIMIZE NZVAR=1 mult=1  ICHARG=0 $END
 $STATPT hssend=.t. OPTTOL=0.0005 NSTEP=50 $END
 $STATPT HESS=calc ihrep=5 $END
 $FORCE nvib=2 $END
 $ZMAT DLC=.t. auto=.t. nonvdw(1)=2,12,3,13,17,2,2,3 $END
 $ZMAT IFZMAT(1)=1,2,12,1,3,13 fvalue(1)=2.00,2.00 $END

 $DATA 
Title
C1
C     6.0    -0.94794    -0.76206     0.67914
C     6.0    -1.60289     0.39691    -0.11818
C     6.0    -0.49772     1.12931    -0.71393
C     6.0     0.80063     0.66145    -0.12193
C     6.0     0.47469    -0.80199     0.11417
H     1.0    -1.44037    -1.74757     0.53831
H     1.0    -0.93010    -0.52633     1.76508
H     1.0     0.96193     1.15706     0.86132
H     1.0     1.68233     0.82502    -0.77638
H     1.0     1.20391    -1.35668     0.74136
H     1.0     0.42997    -1.29436    -0.88584
B     5.0    -2.07771     1.76378     1.03801
H     1.0    -1.00298     2.28067     0.31288
H     1.0    -1.86952     1.60979     2.19647
H     1.0    -3.10346     2.33252     0.85262
H     1.0    -0.57999     1.69394    -1.64549
C     6.0    -2.85092     0.13835    -1.01963
H     1.0    -3.05707    -0.95076    -1.06978
H     1.0    -2.67140     0.49497    -2.05573
H     1.0    -3.77088     0.63063    -0.64196
 $END
