!File created by the GAMESS Input Deck Generator Plugin for Avogadro
 $BASIS GBASIS=STO NGAUSS=3 $END
 $CONTRL SCFTYP=RHF RUNTYP=SADPOINT NZVAR=1 mult=1  ICHARG=0 $END
 $STATPT hssend=.t. OPTTOL=0.0005 NSTEP=50 $END
 $STATPT HESS=calc ihrep=5 $END
 $FORCE nvib=2 $END
 $ZMAT DLC=.t. auto=.t. nonvdw(1)=2,12,3,13,17,2,2,3 $END
!$ZMAT IFZMAT(1)=1,2,12,1,3,13 fvalue(1)=2.00,2.00 $END

 $DATA 
Title
C1
C     6.0    -0.97230583    -0.99111533     0.31101593
C     6.0    -1.61811352     0.24641716    -0.33163267
C     6.0    -0.66935742     1.18494833    -0.61095697
C     6.0     0.73627490     0.69125611    -0.26128307
C     6.0     0.47717354    -0.54715037     0.63590789
H     1.0    -0.98208350    -1.79844952    -0.42142183
H     1.0    -1.51360714    -1.33269632     1.18983674
H     1.0     1.33742595     1.45020115     0.23265730
H     1.0     1.24016285     0.40959293    -1.18599951
H     1.0     0.55371958    -0.26708868     1.68248892
H     1.0     1.19509828    -1.34019876     0.44602716
B     5.0    -1.60785675     1.76936746     0.96471500
H     1.0    -0.69430023     2.47184515     0.91981882
H     1.0    -1.60287404     1.07609606     1.88671052
H     1.0    -2.60075593     2.27294660     0.66471338
H     1.0    -0.82212144     2.01469159    -1.29086280
C     6.0    -3.02234268     0.15731330    -0.91769445
H     1.0    -3.04345083    -0.63784736    -1.66086507
H     1.0    -3.30635357     1.09039283    -1.39264452
H     1.0    -3.74825096    -0.07990360    -0.14500323
 $END
