!File created by the GAMESS Input Deck Generator Plugin for Avogadro
 $BASIS GBASIS=STO NGAUSS=3 $END
 $CONTRL SCFTYP=RHF RUNTYP=OPTIMIZE NZVAR=1 mult=1  ICHARG=-1 $END
 $STATPT hssend=.t. OPTTOL=0.0005 NSTEP=50 $END
 $STATPT HESS=calc ihrep=5 $END
 $FORCE nvib=2 $END
 $ZMAT DLC=.t. auto=.t. nonvdw(1)=9,12,6,12 $END
 $ZMAT IFZMAT(1)=1,9,12,1,6,12 fvalue(1)=1.99,1.97 $END

 $DATA 
Title
C1
C     6.0     0.30406299     2.79894400    -0.17839099
C     6.0     1.54582596     1.99263597     0.13823700
C     6.0    -0.79371297     1.86848795     0.27166700
H     1.0     0.22722800     2.90596890    -1.28555501
H     1.0     0.27995700     3.81015992     0.28010499
C     6.0    -0.33011201     0.49787301    -0.23650400
H     1.0    -1.79781699     2.16181588    -0.10060700
H     1.0    -0.81927502     1.86518502     1.38492501
C     6.0     1.13284397     0.58871102    -0.29580000
H     1.0     1.77684796     1.99621105     1.22648501
H     1.0     2.41306996     2.38991094    -0.43046200
Br    35.0     0.51239097    -0.56207597     1.19969594
H     1.0    -0.60964400     0.20075800    -1.26955903
H     1.0     1.85804904    -0.10385500    -0.77186602
 $END
