!File created by the GAMESS Input Deck Generator Plugin for Avogadro
 $BASIS GBASIS=STO NGAUSS=3 $END
 $CONTRL SCFTYP=RHF RUNTYP=OPTIMIZE NZVAR=1 mult=1  ICHARG=0 $END
 $STATPT hssend=.t. OPTTOL=0.0005 NSTEP=50 $END
 $STATPT HESS=calc ihrep=5 $END
 $FORCE nvib=2 $END
 $ZMAT DLC=.t. auto=.t. nonvdw(1)=3,17,2,20,17,20 $END
 $ZMAT IFZMAT(1)=1,3,17,1,2,20,1,17,20 fvalue(1)=2.08,2.01,1.98 $END

 $DATA 
Title
C1
C     6.0     0.96092     0.37955     0.83398
C     6.0     2.24131    -0.08181     0.18963
C     6.0     2.89142    -1.23462     0.51317
C     6.0     4.33645    -1.08980     0.04194
C     6.0     4.46034     0.42158    -0.14984
C     6.0     3.09127     0.77535    -0.69934
H     1.0     0.55545    -0.39640     1.51746
H     1.0     0.20269     0.59957     0.05415
H     1.0     1.15376     1.30403     1.41665
H     1.0     2.55673    -1.77600     1.41984
H     1.0     4.47233    -1.59700    -0.93778
H     1.0     5.08775    -1.47295     0.76423
H     1.0     5.32205     0.74255    -0.77262
H     1.0     4.55549     0.89517     0.85581
H     1.0     3.02818     0.40283    -1.74632
H     1.0     2.85184     1.85950    -0.67163
B     5.0     2.06247    -2.73129    -0.66834
H     1.0     2.78923    -3.29398    -1.41307
H     1.0     1.35802    -3.43018    -0.02143
H     1.0     1.26981    -1.02427    -1.29348
 $END
