!File created by the GAMESS Input Deck Generator Plugin for Avogadro
 $BASIS GBASIS=STO NGAUSS=3 $END
 $CONTRL SCFTYP=RHF RUNTYP=SADPOINT NZVAR=1 mult=1  ICHARG=0 $END
 $STATPT hssend=.t. OPTTOL=0.0005 NSTEP=50 $END
 $STATPT HESS=calc ihrep=5 $END
 $FORCE nvib=2 $END
 $ZMAT DLC=.t. auto=.t. nonvdw(1)=3,17,2,20,17,20,2,3 $END
!$ZMAT IFZMAT(1)=1,3,17,1,2,20,1,17,20 fvalue(1)=2.08,2.01,1.98 $END

 $DATA 
Title
C1
C     6.0     0.93820858     0.21437223     0.84709120
C     6.0     2.16494274    -0.32410821     0.09327870
C     6.0     3.03200698    -1.26019645     0.70214343
C     6.0     4.48914242    -1.03568709     0.29495028
C     6.0     4.48176622     0.38614330    -0.32789490
C     6.0     3.02009439     0.63353062    -0.78474885
H     1.0     0.35689312    -0.60189122     1.26504183
H     1.0     0.30037588     0.80516046     0.19806363
H     1.0     1.28515267     0.84364361     1.66545916
H     1.0     2.77012897    -1.74961376     1.62876403
H     1.0     4.84196186    -1.77574003    -0.42141449
H     1.0     5.14324570    -1.08697951     1.16309273
H     1.0     5.18418455     0.48337984    -1.15138853
H     1.0     4.75493574     1.11609173     0.43052816
H     1.0     2.90186763     0.40785700    -1.84035099
H     1.0     2.70978546     1.66415775    -0.62842739
B     5.0     1.92488360    -2.23764825    -0.76252913
H     1.0     2.66877508    -2.48500609    -1.60757291
H     1.0     1.16442800    -2.89976549    -0.20365657
H     1.0     0.90461457    -0.67835712    -1.43190348
 $END
